(set-info :Origin "This instance was generated by: BanditFuzz-- an RL fuzzer for SMT solvers" )
(set-info :Author "Joe Scott, Fed Mora, Vijay Ganesh" )
(set-info :Contact "Joe Scott, joseph.scott@uwaterloo.ca")
; solvers/z3.sh
; 	time => 0.22315216064453125
; 	answer => err
; solvers/bitwuzla.sh
; 	time => 0.1475379467010498
; 	answer => err
; solvers/cvc4.sh
; 	time => 0.19424033164978027
; 	answer => err
(set-logic QF_BV)
(declare-const bool_0 Bool)
(declare-const bool_1 Bool)
(declare-const bool_2 Bool)
(declare-const bool_3 Bool)
(declare-const bool_4 Bool)
(declare-const bv_0 (_ BitVec 8))
(declare-const bv_1 (_ BitVec 8))
(declare-const bv_2 (_ BitVec 8))
(declare-const bv_3 (_ BitVec 8))
(declare-const bv_4 (_ BitVec 8))
(assert (not (bvsle (bvsub bv_1 bv_0) (bvand #x0000005e  #x00000080 ))))
(assert (xor (bvsle (bvand bv_2 #x00000001 ) (bvadd #x00000068  #x000000ad )) (not (and bool_4 bool_1))))
(assert (bvsle (bvsdiv (bvnor #x000000bb  bv_3) (bvnor bv_0 bv_4)) (bvadd (bvlshr #x00000092  #x000000c6 ) (bvshl #x0000001f  bv_3))))
(assert (bvslt (bvadd (bvxnor #x0000004b  bv_0) (bvshl bv_1 bv_2)) (bvlshr (bvsdiv bv_1 #x00000054 ) (bvnor #x000000c3  bv_4))))
(assert (bvsgt (bvsmod (bvurem bv_0 #x0000003a ) (bvsdiv bv_2 bv_2)) (bvurem (bvsub bv_4 bv_0) (bvnand #x0000008c  #x000000f1 ))))
(check-sat)
(exit)
